************************************************************************
file with basedata            : md366_.bas
initial value random generator: 1701742002
************************************************************************
projects                      :  1
jobs (incl. supersource/sink ):  22
horizon                       :  177
RESOURCES
  - renewable                 :  2   R
  - nonrenewable              :  2   N
  - doubly constrained        :  0   D
************************************************************************
PROJECT INFORMATION:
pronr.  #jobs rel.date duedate tardcost  MPM-Time
    1     20      0       27       14       27
************************************************************************
PRECEDENCE RELATIONS:
jobnr.    #modes  #successors   successors
   1        1          3           2   3   4
   2        3          3           8  15  17
   3        3          2           7  19
   4        3          1           5
   5        3          3           6  11  14
   6        3          2          10  19
   7        3          3          10  13  16
   8        3          1           9
   9        3          2          10  12
  10        3          1          18
  11        3          3          15  16  17
  12        3          3          14  16  21
  13        3          3          15  17  18
  14        3          1          19
  15        3          2          20  21
  16        3          1          18
  17        3          2          20  21
  18        3          1          20
  19        3          1          22
  20        3          1          22
  21        3          1          22
  22        1          0        
************************************************************************
REQUESTS/DURATIONS:
jobnr. mode duration  R 1  R 2  N 1  N 2
------------------------------------------------------------------------
  1      1     0       0    0    0    0
  2      1     4       3    6    2   10
         2     7       3    5    1    6
         3    10       2    5    1    5
  3      1     6       6    6    5    6
         2     7       5    6    4    5
         3     9       5    6    4    3
  4      1     5       7   10    7    5
         2     6       7    7    7    5
         3     9       6    5    6    4
  5      1     1       7    5    7    8
         2     5       6    3    6    5
         3    10       3    2    4    4
  6      1     3       7    6    8    7
         2     3       9    7    7    7
         3     9       5    5    7    7
  7      1     1       4    6   10    8
         2     4       4    6    9    7
         3    10       4    6    8    7
  8      1     6       4    9    9    8
         2     9       3    9    9    5
         3    10       2    7    9    3
  9      1     1       4    4    9    9
         2     1       4    5    7    9
         3     7       4    2    4    9
 10      1     2       4    6    6    7
         2     8       4    5    4    4
         3    10       4    4    3    3
 11      1     8       9    9   10    3
         2     9       8    5    9    2
         3    10       7    5    9    1
 12      1     2       9    8    7    9
         2     2      10    8    7    8
         3     9       3    8    7    7
 13      1     2       5    3    5    6
         2     8       3    2    3    3
         3     8       3    2    4    1
 14      1     2       6    8    8    8
         2     4       5    5    8    6
         3     6       5    5    7    2
 15      1     1       8    7    9   10
         2     5       6    6    8    9
         3    10       5    5    8    9
 16      1     9       3    8    9   10
         2    10       3    5    9    5
         3    10       3    3    9    7
 17      1     2       6    9   10    3
         2     2       7    9    8    3
         3     9       1    6    7    3
 18      1     1       6    6    2    5
         2     2       3    6    2    5
         3     6       2    6    2    5
 19      1     5       5    9    8    5
         2     8       5    6    5    4
         3    10       5    2    4    3
 20      1     3      10    6    6    9
         2     4       7    6    3    6
         3     9       6    4    3    5
 21      1     3       3    5    6    5
         2     4       2    5    6    4
         3     6       2    4    2    4
 22      1     0       0    0    0    0
************************************************************************
RESOURCEAVAILABILITIES:
  R 1  R 2  N 1  N 2
   17   20  125  116
************************************************************************
MAXIMAL LAGS:
from  to  type  delay
    1   12   ES      0
    1    2   ES      0
    2   12   ES      0
    1    3   ES      0
    3   12   ES      0
    1    4   ES      0
    4   12   ES      0
    1    5   ES      0
    5   12   ES      0
    1    6   ES      0
    6   12   ES      0
    1    7   ES      0
    7   12   ES      0
    1    8   ES      0
    8   12   ES      0
    1    9   ES      0
    9   12   ES      0
    1   10   ES      0
   10   12   ES      0
    1   11   ES      0
   11   12   ES      0
    1   12   ES      0
    2    8   SS     -2
    2    8   SE      6
    2    8   ES      1
    2    8   EE     -5
    2   15   SS     12
    2   15   SE      3
    2   15   ES     -6
    2   15   EE    -10
    2   17   SS    -10
    2   17   SE     -3
    2   17   ES      7
    2   17   EE     -6
    3    7   SS     -5
    3    7   SE     -9
    3    7   ES    -12
    3    7   EE      5
    3   19   SS      4
    3   19   SE      0
    3   19   ES     -7
    3   19   EE     -5
    4    5   SS    -11
    4    5   SE      1
    4    5   ES     11
    4    5   EE     12
    5    6   SS     -2
    5    6   SE      6
    5    6   ES     -4
    5    6   EE      9
    5   11   SS    -12
    5   11   SE    -12
    5   11   ES     -5
    5   11   EE      5
    5   14   SS     -9
    5   14   SE      4
    5   14   ES    -12
    5   14   EE     -5
    6   10   SS     10
    6   10   SE      1
    6   10   ES     -3
    6   10   EE      5
    6   19   SS     -1
    6   19   SE     10
    6   19   ES    -10
    6   19   EE      9
    7   10   SS    -11
    7   10   SE    -11
    7   10   ES     -8
    7   10   EE    -10
    7   13   SS      4
    7   13   SE     -8
    7   13   ES     -3
    7   13   EE    -10
    7   16   SS     10
    7   16   SE     -4
    7   16   ES    -12
    7   16   EE      5
    8    9   SS    -10
    8    9   SE      2
    8    9   ES    -11
    8    9   EE     -8
    9   10   SS      4
    9   10   SE     -4
    9   10   ES      1
    9   10   EE    -10
   10   18   SS      1
   10   18   SE      8
   10   18   ES      5
   10   18   EE      3
   11   15   SS      5
   11   15   SE      2
   11   15   ES      8
   11   15   EE      8
   11   16   SS     -6
   11   16   SE     -7
   11   16   ES     12
   11   16   EE    -10
   11   17   SS     -3
   11   17   SE      6
   11   17   ES      7
   11   17   EE      6
   12   14   SS      3
   12   14   SE    -12
   12   14   ES     -6
   12   14   EE      9
   12   16   SS     -8
   12   16   SE    -12
   12   16   ES     -4
   12   16   EE     -6
   12   21   SS      8
   12   21   SE     -3
   12   21   ES      9
   12   21   EE      3
   13   15   SS     -4
   13   15   SE     -6
   13   15   ES     11
   13   15   EE     -6
   13   17   SS     -3
   13   17   SE     -3
   13   17   ES     -8
   13   17   EE     -9
   13   18   SS    -11
   13   18   SE      1
   13   18   ES     -1
   13   18   EE    -10
   14   19   SS    -11
   14   19   SE    -12
   14   19   ES     -3
   14   19   EE      0
   15   20   SS    -12
   15   20   SE    -10
   15   20   ES    -12
   15   20   EE      8
   15   21   SS     -3
   15   21   SE     -9
   15   21   ES     -6
   15   21   EE     -9
   16   18   SS     -5
   16   18   SE     -2
   16   18   ES     -1
   16   18   EE     -2
   17   20   SS     11
   17   20   SE      2
   17   20   ES      6
   17   20   EE     -3
   17   21   SS     -8
   17   21   SE    -11
   17   21   ES     11
   17   21   EE      3
   18   20   SS     12
   18   20   SE     -8
   18   20   ES      9
   18   20   EE      9
   19   22   SS     -8
   19   22   SE      9
   19   22   ES     -5
   19   22   EE      7
   20   22   SS     -1
   20   22   SE      1
   20   22   ES     12
   20   22   EE     10
   21   22   SS      2
   21   22   SE     -8
   21   22   ES      9
   21   22   EE    -10
************************************************************************
